400 1583 
1 5 1
1 6 1
1 7 1
1 12 1
1 16 1
1 17 1
1 19 1
1 34 1
1 35 1
1 36 1
1 42 1
1 57 1
1 60 1
1 67 1
1 72 1
1 78 1
1 80 1
1 94 1
1 103 1
1 109 1
1 117 1
1 125 1
1 126 1
1 142 1
1 165 1
1 176 1
1 180 1
1 219 1
1 235 1
1 243 1
1 250 1
1 262 1
1 364 1
1 375 1
2 5 1
2 7 1
2 8 1
2 10 1
2 11 1
2 14 1
2 15 1
2 17 1
2 18 1
2 20 1
2 21 1
2 22 1
2 23 1
2 25 1
2 29 1
2 32 1
2 38 1
2 44 1
2 47 1
2 48 1
2 69 1
2 75 1
2 112 1
2 114 1
2 115 1
2 128 1
2 129 1
2 151 1
2 152 1
2 156 1
2 211 1
2 272 1
2 287 1
2 294 1
2 296 1
2 340 1
2 345 1
2 365 1
2 367 1
2 371 1
2 372 1
2 381 1
2 399 1
3 5 1
3 6 1
3 8 1
3 9 1
3 10 1
3 11 1
3 14 1
3 22 1
3 30 1
3 43 1
3 52 1
3 54 1
3 65 1
3 68 1
3 84 1
3 87 1
3 107 1
3 110 1
3 121 1
3 126 1
3 131 1
3 144 1
3 152 1
3 157 1
3 158 1
3 163 1
3 164 1
3 198 1
3 242 1
3 250 1
3 268 1
3 304 1
3 321 1
3 338 1
3 372 1
3 378 1
4 5 1
4 6 1
4 8 1
4 16 1
4 17 1
4 33 1
4 82 1
4 92 1
4 145 1
4 305 1
4 324 1
4 365 1
4 370 1
5 6 1
5 7 1
5 9 1
5 10 1
5 11 1
5 13 1
5 18 1
5 20 1
5 22 1
5 27 1
5 29 1
5 34 1
5 40 1
5 48 1
5 76 1
5 77 1
5 84 1
5 102 1
5 115 1
5 117 1
5 128 1
5 156 1
5 157 1
5 167 1
5 174 1
5 175 1
5 189 1
5 196 1
5 208 1
5 215 1
5 238 1
5 273 1
5 289 1
5 311 1
5 352 1
5 369 1
5 388 1
6 7 1
6 8 1
6 9 1
6 10 1
6 11 1
6 12 1
6 13 1
6 14 1
6 15 1
6 16 1
6 17 1
6 19 1
6 21 1
6 30 1
6 33 1
6 35 1
6 38 1
6 52 1
6 57 1
6 68 1
6 71 1
6 76 1
6 79 1
6 80 1
6 81 1
6 89 1
6 104 1
6 108 1
6 127 1
6 146 1
6 147 1
6 149 1
6 162 1
6 169 1
6 172 1
6 176 1
6 178 1
6 185 1
6 195 1
6 196 1
6 198 1
6 205 1
6 220 1
6 221 1
6 243 1
6 259 1
6 273 1
6 283 1
6 296 1
6 297 1
6 320 1
6 325 1
6 339 1
6 341 1
6 356 1
6 366 1
6 374 1
6 388 1
7 13 1
7 15 1
7 19 1
7 23 1
7 26 1
7 28 1
7 36 1
7 39 1
7 41 1
7 44 1
7 49 1
7 51 1
7 56 1
7 63 1
7 79 1
7 86 1
7 97 1
7 99 1
7 100 1
7 141 1
7 144 1
7 150 1
7 170 1
7 174 1
7 183 1
7 188 1
7 253 1
7 254 1
7 282 1
7 287 1
7 308 1
7 314 1
7 321 1
7 325 1
7 370 1
7 373 1
8 9 1
8 12 1
8 16 1
8 21 1
8 22 1
8 25 1
8 27 1
8 31 1
8 42 1
8 58 1
8 59 1
8 65 1
8 67 1
8 68 1
8 72 1
8 73 1
8 77 1
8 85 1
8 91 1
8 92 1
8 95 1
8 99 1
8 104 1
8 118 1
8 120 1
8 122 1
8 124 1
8 130 1
8 131 1
8 140 1
8 148 1
8 154 1
8 162 1
8 171 1
8 177 1
8 179 1
8 187 1
8 190 1
8 191 1
8 194 1
8 228 1
8 234 1
8 242 1
8 256 1
8 266 1
8 267 1
8 277 1
8 286 1
8 301 1
8 307 1
8 309 1
8 313 1
8 323 1
8 345 1
8 362 1
8 367 1
8 375 1
8 377 1
8 400 1
9 18 1
9 30 1
9 32 1
9 36 1
9 41 1
9 43 1
9 44 1
9 51 1
9 54 1
9 59 1
9 60 1
9 64 1
9 66 1
9 75 1
9 78 1
9 89 1
9 94 1
9 126 1
9 152 1
9 286 1
9 297 1
9 338 1
9 352 1
10 31 1
10 38 1
10 69 1
10 74 1
10 75 1
10 77 1
10 117 1
10 123 1
10 212 1
10 215 1
10 235 1
10 268 1
10 290 1
10 349 1
11 12 1
11 13 1
11 15 1
11 28 1
11 30 1
11 37 1
11 56 1
11 79 1
11 85 1
11 138 1
11 145 1
11 146 1
11 153 1
11 183 1
11 200 1
11 209 1
11 221 1
11 230 1
11 241 1
11 248 1
11 255 1
11 291 1
11 306 1
11 318 1
11 353 1
11 388 1
12 27 1
12 61 1
12 85 1
12 93 1
12 107 1
12 112 1
12 138 1
12 241 1
12 242 1
12 252 1
12 264 1
12 318 1
12 358 1
12 386 1
13 14 1
13 58 1
13 68 1
13 106 1
13 114 1
13 136 1
13 137 1
13 323 1
13 342 1
13 346 1
13 373 1
14 18 1
14 21 1
14 23 1
14 28 1
14 29 1
14 35 1
14 37 1
14 39 1
14 45 1
14 52 1
14 72 1
14 73 1
14 93 1
14 101 1
14 110 1
14 139 1
14 149 1
14 160 1
14 165 1
14 166 1
14 168 1
14 177 1
14 183 1
14 196 1
14 202 1
14 205 1
14 215 1
14 222 1
14 227 1
14 230 1
14 233 1
14 239 1
14 270 1
14 289 1
14 302 1
14 308 1
14 309 1
14 330 1
14 333 1
14 337 1
14 353 1
14 378 1
14 385 1
15 20 1
15 24 1
15 45 1
15 46 1
15 47 1
15 51 1
15 53 1
15 81 1
15 88 1
15 112 1
15 122 1
15 170 1
15 177 1
15 187 1
15 188 1
15 190 1
15 256 1
15 329 1
15 359 1
15 360 1
16 26 1
16 40 1
16 71 1
16 92 1
16 106 1
16 137 1
16 209 1
16 220 1
16 227 1
16 258 1
16 277 1
16 303 1
16 354 1
16 395 1
17 19 1
17 20 1
17 26 1
17 34 1
17 45 1
17 47 1
17 53 1
17 55 1
17 61 1
17 83 1
17 86 1
17 103 1
17 108 1
17 121 1
17 132 1
17 133 1
17 135 1
17 141 1
17 181 1
17 185 1
17 188 1
17 197 1
17 221 1
17 254 1
17 255 1
17 269 1
17 275 1
17 278 1
17 280 1
17 312 1
17 325 1
17 349 1
17 368 1
17 379 1
18 28 1
18 29 1
18 41 1
18 64 1
18 80 1
18 100 1
18 134 1
18 158 1
18 159 1
18 163 1
18 171 1
18 180 1
18 190 1
18 200 1
18 201 1
18 207 1
18 214 1
18 292 1
18 321 1
18 328 1
18 334 1
18 385 1
18 387 1
19 24 1
19 25 1
19 32 1
19 33 1
19 39 1
19 50 1
19 60 1
19 66 1
19 78 1
19 91 1
19 92 1
19 98 1
19 110 1
19 111 1
19 112 1
19 124 1
19 125 1
19 139 1
19 142 1
19 164 1
19 168 1
19 175 1
19 181 1
19 195 1
19 201 1
19 205 1
19 206 1
19 208 1
19 234 1
19 241 1
19 250 1
19 258 1
19 277 1
19 300 1
19 303 1
19 315 1
19 350 1
19 372 1
20 24 1
20 25 1
20 43 1
20 53 1
20 59 1
20 102 1
20 106 1
20 118 1
20 129 1
20 167 1
20 201 1
20 204 1
20 221 1
20 224 1
20 236 1
20 243 1
20 299 1
21 24 1
21 40 1
21 46 1
21 119 1
21 130 1
21 181 1
21 192 1
21 252 1
21 293 1
21 345 1
21 370 1
21 396 1
21 399 1
22 23 1
22 35 1
22 41 1
22 47 1
22 48 1
22 56 1
22 62 1
22 87 1
22 89 1
22 90 1
22 136 1
22 148 1
22 163 1
22 164 1
22 167 1
22 181 1
22 222 1
22 276 1
22 291 1
22 294 1
22 315 1
22 367 1
23 31 1
23 33 1
23 37 1
23 38 1
23 39 1
23 50 1
23 57 1
23 63 1
23 65 1
23 72 1
23 74 1
23 82 1
23 94 1
23 98 1
23 100 1
23 105 1
23 124 1
23 130 1
23 152 1
23 161 1
23 162 1
23 171 1
23 182 1
23 197 1
23 210 1
23 211 1
23 223 1
23 351 1
23 376 1
24 42 1
24 46 1
24 58 1
24 70 1
24 82 1
24 86 1
24 97 1
24 101 1
24 104 1
24 148 1
24 153 1
24 192 1
24 195 1
24 209 1
24 295 1
24 316 1
24 327 1
24 373 1
25 26 1
25 32 1
25 48 1
25 49 1
25 51 1
25 52 1
25 59 1
25 79 1
25 104 1
25 123 1
25 132 1
25 143 1
25 148 1
25 204 1
25 216 1
25 256 1
25 259 1
25 288 1
25 388 1
26 27 1
26 36 1
26 67 1
26 70 1
26 118 1
26 147 1
26 193 1
26 195 1
26 258 1
26 288 1
26 368 1
26 384 1
27 31 1
27 45 1
27 73 1
27 77 1
27 101 1
27 113 1
27 115 1
27 126 1
27 132 1
27 144 1
27 147 1
27 177 1
27 189 1
27 222 1
27 225 1
27 229 1
27 232 1
27 260 1
27 297 1
27 306 1
27 334 1
27 357 1
28 43 1
28 198 1
28 203 1
28 260 1
28 278 1
28 298 1
28 379 1
28 389 1
29 142 1
29 154 1
29 157 1
29 247 1
29 269 1
30 53 1
30 115 1
30 207 1
30 383 1
31 80 1
31 93 1
31 109 1
31 113 1
31 123 1
31 154 1
31 210 1
31 219 1
31 244 1
31 247 1
31 253 1
31 261 1
31 285 1
31 304 1
31 341 1
31 354 1
32 34 1
32 61 1
32 125 1
32 218 1
32 255 1
33 65 1
33 69 1
33 87 1
33 117 1
33 133 1
33 166 1
33 249 1
33 287 1
33 300 1
33 320 1
33 326 1
33 351 1
33 363 1
34 87 1
34 113 1
34 138 1
34 144 1
34 213 1
34 320 1
34 398 1
35 37 1
35 40 1
35 49 1
35 88 1
35 127 1
35 172 1
35 251 1
35 263 1
35 268 1
36 42 1
36 54 1
36 70 1
36 85 1
36 155 1
36 180 1
36 248 1
36 316 1
36 345 1
36 380 1
37 96 1
37 134 1
37 151 1
37 188 1
37 251 1
37 356 1
38 62 1
38 63 1
38 90 1
38 145 1
38 154 1
38 178 1
38 202 1
38 229 1
38 235 1
38 257 1
38 293 1
38 358 1
38 385 1
39 44 1
39 69 1
39 142 1
39 192 1
39 220 1
39 228 1
39 244 1
39 265 1
39 310 1
39 349 1
40 49 1
40 55 1
40 84 1
40 107 1
40 133 1
40 244 1
40 304 1
40 339 1
40 387 1
41 163 1
41 170 1
41 246 1
41 276 1
41 327 1
41 369 1
41 397 1
42 54 1
42 63 1
42 89 1
42 93 1
42 99 1
42 107 1
42 128 1
42 156 1
42 281 1
42 316 1
42 329 1
42 330 1
42 357 1
43 98 1
43 129 1
43 139 1
43 223 1
43 379 1
44 46 1
44 50 1
44 55 1
44 56 1
44 57 1
44 58 1
44 70 1
44 88 1
44 118 1
44 130 1
44 140 1
44 153 1
44 189 1
44 203 1
44 212 1
44 245 1
44 246 1
44 303 1
44 309 1
44 375 1
45 131 1
46 67 1
46 226 1
46 238 1
46 335 1
47 50 1
47 66 1
47 75 1
47 95 1
47 127 1
47 146 1
47 155 1
47 159 1
47 251 1
47 271 1
47 309 1
47 339 1
47 347 1
47 392 1
48 55 1
48 64 1
48 174 1
48 179 1
48 327 1
48 341 1
49 71 1
49 73 1
49 74 1
49 90 1
49 182 1
49 282 1
50 62 1
50 66 1
50 206 1
50 254 1
50 266 1
50 376 1
50 394 1
50 396 1
51 334 1
52 96 1
52 102 1
52 147 1
52 166 1
52 172 1
52 175 1
52 315 1
52 329 1
53 61 1
53 230 1
54 212 1
54 253 1
54 368 1
55 86 1
55 100 1
56 139 1
56 179 1
56 380 1
57 60 1
57 64 1
57 78 1
57 94 1
57 101 1
57 169 1
57 191 1
57 198 1
57 214 1
57 215 1
57 236 1
57 249 1
57 262 1
57 275 1
57 279 1
57 286 1
57 290 1
57 319 1
57 326 1
57 386 1
58 173 1
58 274 1
58 310 1
58 317 1
59 74 1
59 81 1
59 172 1
59 176 1
59 184 1
59 220 1
59 239 1
59 267 1
59 312 1
59 344 1
60 62 1
60 119 1
60 176 1
60 217 1
60 226 1
60 329 1
60 363 1
60 384 1
61 76 1
61 97 1
61 110 1
61 134 1
61 155 1
61 186 1
61 218 1
61 278 1
62 76 1
62 95 1
62 98 1
62 123 1
62 150 1
62 217 1
62 230 1
62 238 1
62 273 1
62 397 1
63 237 1
64 71 1
64 88 1
64 135 1
64 156 1
64 281 1
64 291 1
65 105 1
65 116 1
65 119 1
65 121 1
65 141 1
65 237 1
65 344 1
65 394 1
66 103 1
66 208 1
66 323 1
66 328 1
66 334 1
66 392 1
67 105 1
67 272 1
67 313 1
67 332 1
68 121 1
68 229 1
68 322 1
68 331 1
68 341 1
68 355 1
68 361 1
69 249 1
69 314 1
70 95 1
70 184 1
70 241 1
70 242 1
70 246 1
70 296 1
70 324 1
70 347 1
72 143 1
72 197 1
72 360 1
73 99 1
73 133 1
73 216 1
73 318 1
74 116 1
74 120 1
74 128 1
74 134 1
74 136 1
74 184 1
74 207 1
74 225 1
74 302 1
74 317 1
74 319 1
74 344 1
75 82 1
75 140 1
75 206 1
75 257 1
75 299 1
75 386 1
75 389 1
76 84 1
76 91 1
76 161 1
76 171 1
76 175 1
76 224 1
76 225 1
76 233 1
76 236 1
76 377 1
77 83 1
77 96 1
77 196 1
77 270 1
77 271 1
77 292 1
78 81 1
78 83 1
78 97 1
78 231 1
78 255 1
78 259 1
78 290 1
78 333 1
79 185 1
79 278 1
81 90 1
81 335 1
82 83 1
82 122 1
82 212 1
82 322 1
82 370 1
82 389 1
83 158 1
84 111 1
84 170 1
84 335 1
84 393 1
85 109 1
85 159 1
85 173 1
85 333 1
86 102 1
86 164 1
86 182 1
86 237 1
86 257 1
87 305 1
88 91 1
88 140 1
88 263 1
88 274 1
88 317 1
88 330 1
89 178 1
89 217 1
89 296 1
90 165 1
90 210 1
90 374 1
91 108 1
91 135 1
91 167 1
91 168 1
91 207 1
91 208 1
91 214 1
91 263 1
91 280 1
91 303 1
91 311 1
91 346 1
92 120 1
92 143 1
92 343 1
93 185 1
93 205 1
93 289 1
93 308 1
93 359 1
93 389 1
94 116 1
94 146 1
94 238 1
94 391 1
95 96 1
95 173 1
96 306 1
97 106 1
97 122 1
97 137 1
97 143 1
97 165 1
97 187 1
97 204 1
97 236 1
97 290 1
97 305 1
97 307 1
97 387 1
97 399 1
98 108 1
99 239 1
99 331 1
99 395 1
100 131 1
100 339 1
100 390 1
101 103 1
101 105 1
101 132 1
101 282 1
101 331 1
101 365 1
102 145 1
102 161 1
103 111 1
103 159 1
103 225 1
103 240 1
103 269 1
103 301 1
103 311 1
103 363 1
103 365 1
103 377 1
104 135 1
104 200 1
105 109 1
105 111 1
105 182 1
105 245 1
105 323 1
105 367 1
105 383 1
106 114 1
106 137 1
106 193 1
106 213 1
106 233 1
106 350 1
107 114 1
107 116 1
107 119 1
107 136 1
107 161 1
107 235 1
107 254 1
107 275 1
107 374 1
108 120 1
108 127 1
108 150 1
108 193 1
108 272 1
108 320 1
109 180 1
109 249 1
109 261 1
109 322 1
109 373 1
110 150 1
110 151 1
110 190 1
110 197 1
110 199 1
110 232 1
110 336 1
111 124 1
111 166 1
111 194 1
112 113 1
112 162 1
112 173 1
112 281 1
112 361 1
113 153 1
113 186 1
113 275 1
113 281 1
113 355 1
114 125 1
114 141 1
114 151 1
114 158 1
114 342 1
114 383 1
115 251 1
115 276 1
115 340 1
115 397 1
116 194 1
116 399 1
117 216 1
118 184 1
118 284 1
118 301 1
118 318 1
120 312 1
121 149 1
121 169 1
121 253 1
121 265 1
122 186 1
123 138 1
123 169 1
123 231 1
123 293 1
124 219 1
124 234 1
124 240 1
124 283 1
124 361 1
125 380 1
126 213 1
127 160 1
128 227 1
128 233 1
129 246 1
130 157 1
130 199 1
130 362 1
131 155 1
131 178 1
131 179 1
131 192 1
131 232 1
131 313 1
131 316 1
132 226 1
133 202 1
133 237 1
135 265 1
136 364 1
137 201 1
137 315 1
137 347 1
138 219 1
138 231 1
138 232 1
138 240 1
138 274 1
141 280 1
141 295 1
141 383 1
142 317 1
142 335 1
142 371 1
143 183 1
143 186 1
143 266 1
143 267 1
143 276 1
143 284 1
143 381 1
144 248 1
144 354 1
145 189 1
145 266 1
145 286 1
146 149 1
146 374 1
147 298 1
149 203 1
149 265 1
149 298 1
149 355 1
150 174 1
150 202 1
150 295 1
150 364 1
151 211 1
151 214 1
151 217 1
151 368 1
152 160 1
152 168 1
152 282 1
152 284 1
154 160 1
154 314 1
155 283 1
156 244 1
156 273 1
157 199 1
157 359 1
159 193 1
159 229 1
159 308 1
159 348 1
159 359 1
160 252 1
160 302 1
160 319 1
161 279 1
161 382 1
162 210 1
162 292 1
163 194 1
165 248 1
165 307 1
165 338 1
165 400 1
166 224 1
166 274 1
166 322 1
167 200 1
167 209 1
167 213 1
167 250 1
167 270 1
167 295 1
167 346 1
168 325 1
168 394 1
169 372 1
170 304 1
172 222 1
172 263 1
172 294 1
173 203 1
173 228 1
174 218 1
174 258 1
174 297 1
175 218 1
175 224 1
175 292 1
175 393 1
176 191 1
176 216 1
176 306 1
176 332 1
177 199 1
177 262 1
178 360 1
180 206 1
180 247 1
180 256 1
181 285 1
181 305 1
181 348 1
183 187 1
183 264 1
184 191 1
185 299 1
185 391 1
186 259 1
186 326 1
186 398 1
187 358 1
188 291 1
188 349 1
188 395 1
189 366 1
191 302 1
192 299 1
192 360 1
192 363 1
194 247 1
196 228 1
196 234 1
196 264 1
196 366 1
196 397 1
197 348 1
197 393 1
198 223 1
199 211 1
200 227 1
201 204 1
201 243 1
201 252 1
201 260 1
201 283 1
201 327 1
201 378 1
203 298 1
203 353 1
203 390 1
204 311 1
204 336 1
204 340 1
205 332 1
205 400 1
206 260 1
208 392 1
209 338 1
209 343 1
210 271 1
212 279 1
212 352 1
214 268 1
214 337 1
214 396 1
215 245 1
215 369 1
215 375 1
215 384 1
217 223 1
218 226 1
219 240 1
222 307 1
223 261 1
225 231 1
225 239 1
225 356 1
228 277 1
229 272 1
231 391 1
232 288 1
234 285 1
234 337 1
235 245 1
235 301 1
236 313 1
237 362 1
238 289 1
239 347 1
241 270 1
243 267 1
244 344 1
245 279 1
246 293 1
246 382 1
248 269 1
248 314 1
249 261 1
252 257 1
252 271 1
253 284 1
253 285 1
253 342 1
254 396 1
257 262 1
257 328 1
257 348 1
258 287 1
258 331 1
263 264 1
263 321 1
264 366 1
264 386 1
265 326 1
265 342 1
265 357 1
266 376 1
267 280 1
269 379 1
270 357 1
270 381 1
271 300 1
272 324 1
273 390 1
276 376 1
278 350 1
279 288 1
279 337 1
279 340 1
281 310 1
281 351 1
283 378 1
285 384 1
287 319 1
287 346 1
287 361 1
288 353 1
288 355 1
288 356 1
291 350 1
292 294 1
292 312 1
292 324 1
292 351 1
292 371 1
293 300 1
293 354 1
296 387 1
300 336 1
301 398 1
302 380 1
303 333 1
305 395 1
307 310 1
307 377 1
308 343 1
318 369 1
321 328 1
323 343 1
326 332 1
327 330 1
335 336 1
335 371 1
336 364 1
339 362 1
339 398 1
349 352 1
352 358 1
354 390 1
356 392 1
357 381 1
358 385 1
360 393 1
362 382 1
364 391 1
368 382 1
392 394 1
395 400 1
